* Signature: 0x3a7efaa975185a2e
NAME idol-model
ROWS
 N  OBJ
 L  c_2598  
COLUMNS
    MARKER    'MARKER'                 'INTORG'
    u_0       c_2598    1
    u_1       c_2598    1
    u_2       c_2598    1
    u_3       c_2598    1
    u_4       c_2598    1
    u_5       c_2598    1
    u_6       c_2598    1
    u_7       c_2598    1
    u_8       c_2598    1
    u_9       c_2598    1
    u_10      c_2598    1
    u_11      c_2598    1
    u_12      c_2598    1
    u_13      c_2598    1
    u_14      c_2598    1
    u_15      c_2598    1
    u_16      c_2598    1
    u_17      c_2598    1
    u_18      c_2598    1
    u_19      c_2598    1
    u_20      c_2598    1
    u_21      c_2598    1
    u_22      c_2598    1
    u_23      c_2598    1
    u_24      c_2598    1
    MARKER    'MARKER'                 'INTEND'
RHS
    RHS1      c_2598    2
BOUNDS
 BV BND1      u_0     
 BV BND1      u_1     
 BV BND1      u_2     
 BV BND1      u_3     
 BV BND1      u_4     
 BV BND1      u_5     
 BV BND1      u_6     
 BV BND1      u_7     
 BV BND1      u_8     
 BV BND1      u_9     
 BV BND1      u_10    
 BV BND1      u_11    
 BV BND1      u_12    
 BV BND1      u_13    
 BV BND1      u_14    
 BV BND1      u_15    
 BV BND1      u_16    
 BV BND1      u_17    
 BV BND1      u_18    
 BV BND1      u_19    
 BV BND1      u_20    
 BV BND1      u_21    
 BV BND1      u_22    
 BV BND1      u_23    
 BV BND1      u_24    
ENDATA
